NAME : random_4
COMMENT : 40 random nodes
TYPE : TSP
DIMENSION : 40
EDGE_WEIGHT_TYPE : EUC_2D
NODE_COORD_SECTION
1 663 165
2 698 760
3 477 368
4 749 522
5 896 321
6 753 627
7 994 816
8 814 430
9 671 748
10 92 635
11 643 52
12 629 822
13 303 435
14 324 951
15 884 850
16 749 507
17 582 249
18 399 905
19 61 37
20 540 62
21 785 658
22 601 353
23 860 354
24 102 503
25 802 651
26 980 917
27 603 892
28 586 172
29 860 957
30 279 199
31 699 878
32 938 315
33 189 776
34 931 617
35 876 212
36 916 89
37 732 966
38 284 777
39 641 837
40 196 668
EOF